 2    42    20151006 072241   20151006 073159
42    72    20151008 043110   20151008 062921
44    74    20151008 071648   20151008 095513
56    86    20151009 005426   20151009 060506
83   113    20151011 080618   20151011 104926
84   114    20151011 105627   20151011 113200
85   115    20151011 114041   20151011 132334
86   116    20151011 133127   20151011 153430
